c This is QMaxSAT 2017 based on 14.07
c This is Glucose 3.0
c This is MiniSat 2.2.0
c WARNING: for repeatability, setting FPU to use double precision
c card = mrwto, comp = 0, pmodel = 0, narr = 8, mct = 29, verb = 0
cr firstCPXsol 0 0 0
c top = 167313
c |  Number of variables:    27896                                            |
c |  Number of clauses:      9145600                                          |
c |  Weight of hard clauses: 167313                                           |
c |  Number of soft clauses: 6496                                             |
c |  Number of unit soft clauses: 6496                                        |
c |  Maximum Cardinality (by unit): 1338496      (1338496     )               |
c last restart ## conflicts  :  10 19988 
o 1109 | cpuTime 0.770231 s
c Sum of weights = 167312
c A number of soft clauses remained = 812
c MRWTO encoding for Pseudo-Boolean Constraints
c sizeMax=1109
c No.0 Divisor=11	generated by pow1
c No.1 Divisor=11	generated by pow1
c No.2 Divisor=11	generated by pow1
c p0= 11	p1= 11	p2= 11	
c number of digits = 4
c linkingVar[0].size = 11, linkingVar[1].size = 11, linkingVar[2].size = 10, linkingVar[3].size = 1, 
c Pseudo-Boolean Constraints: 18136 variables and 163418 clauses
c Sum of weights = 167312
c A number of soft clauses remained = 812
c MRWTO encoding for Pseudo-Boolean Constraints
c sizeMax=1109
c No.0 Divisor=11	generated by pow1
c No.1 Divisor=11	generated by pow1
c No.2 Divisor=11	generated by pow1
c p0= 11	p1= 11	p2= 11	
c number of digits = 4
c linkingVar[0].size = 11, linkingVar[1].size = 11, linkingVar[2].size = 10, linkingVar[3].size = 1, 
c Pseudo-Boolean Constraints: 18136 variables and 163418 clauses
c Sum of weights = 167312
c A number of soft clauses remained = 812
c MRWTO encoding for Pseudo-Boolean Constraints
c sizeMax=1109
c No.0 Divisor=11	generated by pow1
c No.1 Divisor=11	generated by pow1
c No.2 Divisor=11	generated by pow1
c p0= 11	p1= 11	p2= 11	
c number of digits = 4
c linkingVar[0].size = 11, linkingVar[1].size = 11, linkingVar[2].size = 10, linkingVar[3].size = 1, 
c Pseudo-Boolean Constraints: 18136 variables and 163418 clauses
c Sum of weights = 167312
c A number of soft clauses remained = 812
c MRWTO encoding for Pseudo-Boolean Constraints
c sizeMax=1109
c No.0 Divisor=11	generated by pow1
c No.1 Divisor=11	generated by pow1
c No.2 Divisor=11	generated by pow1
c p0= 11	p1= 11	p2= 11	
c number of digits = 4
c linkingVar[0].size = 11, linkingVar[1].size = 11, linkingVar[2].size = 10, linkingVar[3].size = 1, 
c Pseudo-Boolean Constraints: 18136 variables and 163418 clauses
c Sum of weights = 167312
c A number of soft clauses remained = 812
c MRWTO encoding for Pseudo-Boolean Constraints
c sizeMax=1109
c No.0 Divisor=11	generated by pow1
c No.1 Divisor=11	generated by pow1
c No.2 Divisor=11	generated by pow1
c p0= 11	p1= 11	p2= 11	
c number of digits = 4
c linkingVar[0].size = 11, linkingVar[1].size = 11, linkingVar[2].size = 10, linkingVar[3].size = 1, 
c Pseudo-Boolean Constraints: 18136 variables and 163418 clauses
c Sum of weights = 167312
c A number of soft clauses remained = 812
c MRWTO encoding for Pseudo-Boolean Constraints
c sizeMax=1109
c No.0 Divisor=11	generated by pow1
c No.1 Divisor=11	generated by pow1
c No.2 Divisor=11	generated by pow1
c p0= 11	p1= 11	p2= 11	
c number of digits = 4
c linkingVar[0].size = 11, linkingVar[1].size = 11, linkingVar[2].size = 10, linkingVar[3].size = 1, 
c Pseudo-Boolean Constraints: 18136 variables and 163418 clauses
c Sum of weights = 167312
c A number of soft clauses remained = 812
c MRWTO encoding for Pseudo-Boolean Constraints
c sizeMax=1109
c No.0 Divisor=11	generated by pow1
c No.1 Divisor=11	generated by pow1
c No.2 Divisor=11	generated by pow1
c p0= 11	p1= 11	p2= 11	
c number of digits = 4
c linkingVar[0].size = 11, linkingVar[1].size = 11, linkingVar[2].size = 10, linkingVar[3].size = 1, 
c Pseudo-Boolean Constraints: 18136 variables and 163418 clauses
c Sum of weights = 167312
c A number of soft clauses remained = 812
c MRWTO encoding for Pseudo-Boolean Constraints
c sizeMax=1109
c No.0 Divisor=11	generated by pow1
c No.1 Divisor=11	generated by pow1
c No.2 Divisor=11	generated by pow1
c p0= 11	p1= 11	p2= 11	
c number of digits = 4
c linkingVar[0].size = 11, linkingVar[1].size = 11, linkingVar[2].size = 10, linkingVar[3].size = 1, 
c Pseudo-Boolean Constraints: 18136 variables and 163418 clauses
c last restart ## conflicts  :  89 13480 
o 965 | cpuTime 2.91081 s
c last restart ## conflicts  :  528 13853 
o 920 | cpuTime 3.69929 s
c last restart ## conflicts  :  191 14499 
o 894 | cpuTime 17.8501 s
c last restart ## conflicts  :  139 34198 
o 878 | cpuTime 17.9097 s
c last restart ## conflicts  :  21 11713 
o 842 | cpuTime 39.8706 s
c last restart ## conflicts  :  695 12469 
o 803 | cpuTime 141.676 s
c last restart ## conflicts  :  560 13234 
o 778 | cpuTime 156.397 s
c last restart ## conflicts  :  99 15377 
o 773 | cpuTime 238.772 s
c last restart ## conflicts  :  830 13117 
o 765 | cpuTime 429.296 s
c last restart ## conflicts  :  582 15487 
o 754 | cpuTime 625.582 s
c last restart ## conflicts  :  127 15868 
o 725 | cpuTime 949.319 s
c last restart ## conflicts  :  3 16489 
o 718 | cpuTime 1063 s
c last restart ## conflicts  :  802 14318 
o 706 | cpuTime 1106.96 s
c last restart ## conflicts  :  43 35044 
o 702 | cpuTime 1107.04 s
s UNKNOWN
c Search is stopped by a limit (maybe time-limit)
cr positiVarArr: [ | 8@1(1->8) | 230@1(8->27) | 755@1(27->1) | 843@2(1->2) | 891@2(2->21) | 900@2(3->1) | 1450@2(21->29) | 1656@2(29->3) | 1689@3(1->7) | 1881@3(7->25) | 2379@3(25->1) | 2540@4(1->17) | 2872@4(13->1) | 3005@4(17->18) | 3029@4(18->13) | 3376@5(1->12) | 3490@5(5->10) | 3622@5(9->26) | 3626@5(10->1) | 3692@5(12->9) | 4094@5(26->5) | 4233@6(1->28) | 4351@6(6->1) | 4664@6(16->24) | 4859@6(23->16) | 4878@6(24->6) | 5011@6(28->23) | 5050@7(1->4) | 5148@7(4->15) | 5355@7(11->19) | 5434@7(14->11) | 5466@7(15->14) | 5569@7(19->1) | 5907@8(1->20) | 6460@8(20->22) | 6497@8(22->1) | ]
cr the 1-th chain: [ 1->8->27->1 ] (#non-depot=2) {#cumul.=3}
cr the 2-th chain: [ 1->2->21->29->3->1 ] (#non-depot=4) {#cumul.=7}
cr the 3-th chain: [ 1->7->25->1 ] (#non-depot=2) {#cumul.=9}
cr the 4-th chain: [ 1->17->18->13->1 ] (#non-depot=3) {#cumul.=12}
cr the 5-th chain: [ 1->12->9->26->5->10->1 ] (#non-depot=5) {#cumul.=17}
cr the 6-th chain: [ 1->28->23->16->24->6->1 ] (#non-depot=5) {#cumul.=22}
cr the 7-th chain: [ 1->4->15->14->11->19->1 ] (#non-depot=5) {#cumul.=27}
cr the 8-th chain: [ 1->20->22->1 ] (#non-depot=2) {#cumul.=29}
c Latest Answer = 0 by 15 loops
c restarts              : 71436
c conflicts             : 11943178       (3328 /sec)
c decisions             : 161914464      (0.00 % random) (45124 /sec)
c propagations          : 18464029024    (5145740 /sec)
c conflict literals     : 3571171369     (29.23 % deleted)
c Memory used           : 1639.00 MB
c CPU time              : 3588.22 s
